
===== New CPLEX run =====
Instance: /home/yorig/tuner/mpils-tests/instances/miplib/easy/lotsize.mps
Config: /scratch/yorig/mpils-results-grid-seconds-5-watchdog/easy/24proc/seed-5/4_lotsize_seed-5_20260504_011421/iterated_local_search/run_2_worker_19/ils_config_17373347010216547774.prm
========================

Selected objective sense:  MINIMIZE
Selected objective  name:  R1921
Selected RHS        name:  B
Selected bound      name:  BOUND
Wall watchdog: enabled factor=1 grace=1 limit=6 seconds
Version identifier: 22.1.2.0 | 2024-11-26 | 0edbb82fd
CPXPARAM_Threads                                 8
CPXPARAM_Parallel                                1
CPXPARAM_MIP_Cuts_Cliques                        3
CPXPARAM_MIP_Cuts_Covers                         2
CPXPARAM_MIP_Cuts_FlowCovers                     2
CPXPARAM_MIP_Cuts_Implied                        -1
CPXPARAM_MIP_Cuts_GUBCovers                      1
CPXPARAM_MIP_Limits_GomoryCand                   150
CPXPARAM_MIP_Cuts_Gomory                         -1
CPXPARAM_MIP_Cuts_PathCut                        -1
CPXPARAM_MIP_Cuts_Disjunctive                    2
CPXPARAM_TimeLimit                               5
CPXPARAM_MIP_Limits_CutsFactor                   4
Tried aggregator 1 time.
MIP Presolve eliminated 595 rows and 0 columns.
MIP Presolve added 1190 rows and 0 columns.
MIP Presolve modified 10 coefficients.
Reduced MIP has 2515 rows, 2985 columns, and 7755 nonzeros.
Reduced MIP has 1195 binaries, 0 generals, 0 SOSs, and 0 indicators.
Presolve time = 0.00 sec. (4.53 ticks)
Probing fixed 0 vars, tightened 5487 bounds.
Probing time = 0.01 sec. (18.38 ticks)
Tried aggregator 2 times.
Detecting symmetries...
MIP Presolve modified 1206 coefficients.
Aggregator did 10 substitutions.
Reduced MIP has 2505 rows, 2975 columns, and 7735 nonzeros.
Reduced MIP has 1195 binaries, 0 generals, 0 SOSs, and 0 indicators.
Presolve time = 0.00 sec. (6.66 ticks)
Probing fixed 0 vars, tightened 2401 bounds.
Probing time = 0.00 sec. (6.41 ticks)
Clique table members: 190.
MIP emphasis: balance optimality and feasibility.
MIP search method: dynamic search.
Parallel mode: deterministic, using up to 8 threads.
Root relaxation solution time = 0.01 sec. (9.71 ticks)

        Nodes                                         Cuts/
   Node  Left     Objective  IInf  Best Integer    Best Bound    ItCnt     Gap

      0     0   348385.3466   472                 348385.3466      882         
      0     0   585166.2537   434                   Cuts: 726     1816         
      0     0   819808.5686   568                   Cuts: 726     2482         
      0     0   926788.0365   631                   Cuts: 649     3005         
*     0+    0                       1.01740e+07   926788.0365            90.89%
*     0+    0                      7973370.0000   926788.0365            88.38%
      0     0   996134.9138   637  7973370.0000     Cuts: 655     3541   87.51%
      0     0  1046650.1094   670  7973370.0000     Cuts: 426     4017   86.87%
Detecting symmetries...
      0     0  1077728.9145   681  7973370.0000     Cuts: 369     4441   86.48%
*     0+    0                      1940615.0000  1077728.9145            44.46%
      0     0  1098107.7361   686  1940615.0000     Cuts: 309     4780   43.41%
      0     0  1113373.9726   749  1940615.0000     Cuts: 289     5080   42.63%
      0     0  1123706.9656   724  1940615.0000     Cuts: 267     5372   42.10%
      0     0  1131744.0089   733  1940615.0000     Cuts: 240     5624   41.68%
      0     0  1138097.3303   716  1940615.0000     Cuts: 231     5848   41.35%
      0     0  1141405.2363   752  1940615.0000     Cuts: 173     6045   41.18%
      0     0  1145369.5823   743  1940615.0000     Cuts: 155     6222   40.98%
      0     0  1148236.2119   739  1940615.0000     Cuts: 147     6390   40.83%
      0     0  1150583.0826   764  1940615.0000     Cuts: 118     6568   40.71%
      0     0  1152165.1293   752  1940615.0000     Cuts: 111     6703   40.63%
      0     0  1153987.5391   767  1940615.0000      Cuts: 94     6837   40.53%
      0     0  1156021.1078   758  1940615.0000     Cuts: 112     6971   40.43%
      0     0  1157309.6574   778  1940615.0000     Cuts: 103     7075   40.36%
      0     0  1159440.7369   785  1940615.0000      Cuts: 97     7231   40.25%
      0     0  1160578.1644   782  1940615.0000      Cuts: 60     7349   40.20%
      0     0  1161335.4745   771  1940615.0000      Cuts: 53     7474   40.16%
      0     0  1162309.0083   764  1940615.0000      Cuts: 63     7589   40.11%
      0     0  1162644.3442   795  1940615.0000      Cuts: 71     7667   40.09%
      0     0  1163474.4924   795  1940615.0000      Cuts: 54     7788   40.05%
      0     0  1164077.2617   802  1940615.0000      Cuts: 49     7877   40.02%
      0     0  1165208.6207   808  1940615.0000      Cuts: 48     7982   39.96%
      0     0  1166470.9491   786  1940615.0000      Cuts: 82     8122   39.89%
      0     0  1167094.7212   797  1940615.0000      Cuts: 52     8225   39.86%
      0     0  1167837.9901   786  1940615.0000      Cuts: 62     8306   39.82%
      0     0  1168437.0899   799  1940615.0000      Cuts: 67     8400   39.79%
      0     0  1168781.7120   806  1940615.0000      Cuts: 47     8461   39.77%
      0     0  1169470.9693   795  1940615.0000      Cuts: 34     8556   39.74%
      0     0  1169687.6622   807  1940615.0000      Cuts: 48     8626   39.73%
Detecting symmetries...
      0     2  1169687.6622   807  1940615.0000  1169687.6622     8626   39.73%
Elapsed time = 3.24 sec. (5781.64 ticks, tree = 0.02 MB, solutions = 3)
     13     7  1174486.8406   729  1940615.0000  1169690.0371     9135   39.73%
     34    28  1185292.3080   766  1940615.0000  1170375.6183    13049   39.69%
     97    60  1197988.1674   743  1940615.0000  1170375.6183    19285   39.69%
    125   114  1198772.4772   721  1940615.0000  1170375.6183    24553   39.69%
    156   144  1194426.1398   701  1940615.0000  1170375.6183    28345   39.69%
    218   181  1210091.7521   708  1940615.0000  1170375.6183    32491   39.69%
    275   220  1229787.6613   724  1940615.0000  1170375.6183    36616   39.69%
    326   286  1196867.1921   695  1940615.0000  1170375.6183    42908   39.69%
    379   361  1242110.5412   649  1940615.0000  1170375.6183    51096   39.69%

GUB cover cuts applied:  0
Clique cuts applied:  1
Cover cuts applied:  14
Flow cuts applied:  1056
Mixed integer rounding cuts applied:  542
Multi commodity flow cuts applied:  77
Disjunctive cuts applied:  0
Cone linearizations applied:  0

Root node processing (before b&c):
  Real time             =    3.23 sec. (5773.92 ticks)
Parallel b&c, 8 threads:
  Real time             =    1.78 sec. (2456.46 ticks)
  Sync time (average)   =    0.47 sec.
  Wait time (average)   =    0.00 sec.
                          ------------
Total (root+branch&cut) =    5.01 sec. (8230.38 ticks)
Gap: 39.69%
Upper bound: 1.94062e+06
Lower bound: 1.17038e+06
Termination status: Normal
End of CPLEX run. Time: 5.0094 seconds

===== New CPLEX run =====
Instance: /home/yorig/tuner/mpils-tests/instances/miplib/easy/lotsize.mps
Config: /scratch/yorig/mpils-results-grid-seconds-5-watchdog/easy/24proc/seed-5/4_lotsize_seed-5_20260504_011421/iterated_local_search/run_2_worker_19/ils_config_1725305035521977912.prm
========================

Selected objective sense:  MINIMIZE
Selected objective  name:  R1921
Selected RHS        name:  B
Selected bound      name:  BOUND
Wall watchdog: enabled factor=1 grace=1 limit=6 seconds
Version identifier: 22.1.2.0 | 2024-11-26 | 0edbb82fd
CPXPARAM_Threads                                 8
CPXPARAM_Parallel                                1
CPXPARAM_MIP_Cuts_Cliques                        3
CPXPARAM_MIP_Cuts_Covers                         2
CPXPARAM_MIP_Cuts_FlowCovers                     2
CPXPARAM_MIP_Cuts_Implied                        -1
CPXPARAM_MIP_Cuts_GUBCovers                      1
CPXPARAM_MIP_Limits_GomoryCand                   150
CPXPARAM_MIP_Cuts_Gomory                         -1
CPXPARAM_MIP_Cuts_PathCut                        -1
CPXPARAM_MIP_Cuts_Disjunctive                    2
CPXPARAM_Emphasis_MIP                            5
CPXPARAM_TimeLimit                               5
CPXPARAM_MIP_Limits_CutsFactor                   4
Tried aggregator 1 time.
MIP Presolve eliminated 595 rows and 0 columns.
MIP Presolve added 1190 rows and 0 columns.
MIP Presolve modified 10 coefficients.
Reduced MIP has 2515 rows, 2985 columns, and 7755 nonzeros.
Reduced MIP has 1195 binaries, 0 generals, 0 SOSs, and 0 indicators.
Presolve time = 0.00 sec. (4.53 ticks)
Probing fixed 0 vars, tightened 5487 bounds.
Probing time = 0.01 sec. (18.38 ticks)
Tried aggregator 2 times.
Detecting symmetries...
MIP Presolve modified 1206 coefficients.
Aggregator did 10 substitutions.
Reduced MIP has 2505 rows, 2975 columns, and 7735 nonzeros.
Reduced MIP has 1195 binaries, 0 generals, 0 SOSs, and 0 indicators.
Presolve time = 0.00 sec. (6.66 ticks)
Probing fixed 0 vars, tightened 2401 bounds.
Probing time = 0.00 sec. (6.41 ticks)
Clique table members: 190.
MIP emphasis: heuristic.
MIP search method: dynamic search.
Parallel mode: deterministic, using up to 8 threads.
Root relaxation solution time = 0.01 sec. (9.71 ticks)

        Nodes                                         Cuts/
   Node  Left     Objective  IInf  Best Integer    Best Bound    ItCnt     Gap

      0     0   348385.3466   472                 348385.3466      882         
*     0+    0                       1.40386e+07   348385.3466            97.52%
*     0+    0                       1.01740e+07   348385.3466            96.58%
*     0+    0                      7973370.0000   348385.3466            95.63%
      0     0   585166.2537   434  7973370.0000     Cuts: 726     1816   86.79%
*     0+    0                      1940615.0000  1053480.4413            45.71%
      0     0   882250.6079   615  1940615.0000     Cuts: 726     2630   45.71%
      0     0  1066094.3387   640  1940615.0000     Cuts: 726     3349   44.22%
      0     0  1100944.2260   674  1940615.0000     Cuts: 468     3744   42.61%
      0     0  1123652.0946   688  1940615.0000     Cuts: 374     4160   41.32%
Detecting symmetries...
      0     0  1139896.1945   727  1940615.0000     Cuts: 312     4514   40.84%
      0     0  1150643.5921   721  1940615.0000     Cuts: 257     4819   40.32%
      0     0  1157592.0601   732  1940615.0000     Cuts: 233     5076   40.11%
      0     0  1163768.6816   762  1940615.0000     Cuts: 216     5362   39.97%
      0     0  1167338.2636   767  1940615.0000     Cuts: 161     5587   39.85%
*     0+    0                      1937015.0000  1167338.2636            39.74%
      0     0  1169199.4275   763  1937015.0000     Cuts: 129     5738   39.64%
      0     0  1171162.2984   774  1937015.0000     Cuts: 125     5897   39.54%
      0     0  1172782.1223   786  1937015.0000     Cuts: 116     6046   39.45%
      0     0  1173796.4876   789  1937015.0000      Cuts: 69     6178   39.40%
      0     0  1174571.6113   762  1937015.0000     Cuts: 130     6299   39.36%
      0     0  1174880.4193   783  1937015.0000      Cuts: 77     6388   39.35%
      0     0  1175551.4676   781  1937015.0000      Cuts: 93     6505   39.31%
      0     0  1176067.6011   794  1937015.0000      Cuts: 62     6613   39.28%
      0     0  1176285.3492   773  1937015.0000      Cuts: 60     6697   39.27%
      0     0  1176584.7692   804  1937015.0000      Cuts: 46     6797   39.26%
      0     0  1178233.0014   779  1937015.0000      Cuts: 61     6899   39.17%
      0     0  1179236.6009   812  1937015.0000      Cuts: 71     6995   39.12%
      0     0  1179636.9709   804  1937015.0000      Cuts: 66     7080   39.10%
      0     0  1179845.8945   798  1937015.0000      Cuts: 29     7134   39.09%
*     0+    0                      1834649.0000  1179845.8945            35.69%
      0     0  1180045.5221   798  1834649.0000      Cuts: 45     7190   35.68%

GUB cover cuts applied:  0
Clique cuts applied:  0
Cover cuts applied:  14
Flow cuts applied:  938
Mixed integer rounding cuts applied:  521
Multi commodity flow cuts applied:  75
Lift and project cuts applied:  1
Disjunctive cuts applied:  0
Cone linearizations applied:  0

Root node processing (before b&c):
  Real time             =    5.01 sec. (9039.13 ticks)
Parallel b&c, 8 threads:
  Real time             =    0.00 sec. (0.00 ticks)
  Sync time (average)   =    0.00 sec.
  Wait time (average)   =    0.00 sec.
                          ------------
Total (root+branch&cut) =    5.01 sec. (9039.13 ticks)
Gap: 35.68%
Upper bound: 1.83465e+06
Lower bound: 1.18005e+06
Termination status: Normal
End of CPLEX run. Time: 5.01691 seconds

===== New CPLEX run =====
Instance: /home/yorig/tuner/mpils-tests/instances/miplib/easy/lotsize.mps
Config: /scratch/yorig/mpils-results-grid-seconds-5-watchdog/easy/24proc/seed-5/4_lotsize_seed-5_20260504_011421/iterated_local_search/run_2_worker_19/ils_config_17540755679103830080.prm
========================

Selected objective sense:  MINIMIZE
Selected objective  name:  R1921
Selected RHS        name:  B
Selected bound      name:  BOUND
Wall watchdog: enabled factor=1 grace=1 limit=6 seconds
Version identifier: 22.1.2.0 | 2024-11-26 | 0edbb82fd
CPXPARAM_Threads                                 8
CPXPARAM_Parallel                                1
CPXPARAM_MIP_Cuts_Cliques                        3
CPXPARAM_MIP_Cuts_Covers                         2
CPXPARAM_MIP_Cuts_FlowCovers                     2
CPXPARAM_MIP_Cuts_Implied                        2
CPXPARAM_MIP_Cuts_GUBCovers                      1
CPXPARAM_MIP_Limits_GomoryCand                   150
CPXPARAM_MIP_Cuts_Gomory                         -1
CPXPARAM_MIP_Cuts_PathCut                        -1
CPXPARAM_MIP_Cuts_Disjunctive                    2
CPXPARAM_Emphasis_MIP                            5
CPXPARAM_TimeLimit                               5
CPXPARAM_MIP_Limits_CutsFactor                   4
Tried aggregator 1 time.
MIP Presolve eliminated 595 rows and 0 columns.
MIP Presolve added 1190 rows and 0 columns.
MIP Presolve modified 10 coefficients.
Reduced MIP has 2515 rows, 2985 columns, and 7755 nonzeros.
Reduced MIP has 1195 binaries, 0 generals, 0 SOSs, and 0 indicators.
Presolve time = 0.00 sec. (4.53 ticks)
Probing fixed 0 vars, tightened 5487 bounds.
Probing time = 0.01 sec. (18.38 ticks)
Tried aggregator 2 times.
Detecting symmetries...
MIP Presolve modified 1206 coefficients.
Aggregator did 10 substitutions.
Reduced MIP has 2505 rows, 2975 columns, and 7735 nonzeros.
Reduced MIP has 1195 binaries, 0 generals, 0 SOSs, and 0 indicators.
Presolve time = 0.00 sec. (6.66 ticks)
Probing fixed 0 vars, tightened 2401 bounds.
Probing time = 0.00 sec. (6.41 ticks)
Clique table members: 190.
MIP emphasis: heuristic.
MIP search method: dynamic search.
Parallel mode: deterministic, using up to 8 threads.
Root relaxation solution time = 0.01 sec. (9.71 ticks)

        Nodes                                         Cuts/
   Node  Left     Objective  IInf  Best Integer    Best Bound    ItCnt     Gap

      0     0   348385.3466   472                 348385.3466      882         
*     0+    0                       1.40386e+07   348385.3466            97.52%
*     0+    0                       1.01740e+07   348385.3466            96.58%
*     0+    0                      7973370.0000   348385.3466            95.63%
      0     0   583577.4049   435  7973370.0000     Cuts: 726     1819   86.74%
*     0+    0                      1940615.0000  1057629.6430            45.50%
      0     0   876077.9329   621  1940615.0000     Cuts: 726     2593   44.06%
      0     0  1063750.7499   654  1940615.0000     Cuts: 726     3331   42.89%
      0     0  1111757.7903   663  1940615.0000     Cuts: 526     3800   41.86%
      0     0  1129075.8798   652  1940615.0000     Cuts: 336     4138   41.35%
Detecting symmetries...
      0     0  1140477.3095   699  1940615.0000     Cuts: 272     4434   40.83%
      0     0  1147453.6146   719  1940615.0000     Cuts: 261     4704   40.46%
      0     0  1154738.0625   758  1940615.0000     Cuts: 201     4965   40.25%
      0     0  1159161.5565   779  1940615.0000     Cuts: 220     5221   40.06%
      0     0  1162390.1109   765  1940615.0000     Cuts: 145     5411   40.04%
*     0+    0                      1918109.0000  1163557.4277            39.34%
      0     0  1164761.8763   784  1918109.0000     Cuts: 136     5580   39.28%
      0     0  1165994.1191   793  1918109.0000      Cuts: 98     5717   39.21%
      0     0  1167000.6208   787  1918109.0000     Cuts: 114     5854   39.16%
      0     0  1168098.1529   781  1918109.0000      Cuts: 80     5986   39.10%
      0     0  1168622.6711   792  1918109.0000      Cuts: 60     6094   39.07%
      0     0  1169360.8259   790  1918109.0000      Cuts: 63     6175   39.04%
      0     0  1169893.3433   792  1918109.0000      Cuts: 31     6297   39.01%
      0     0  1170201.0900   785  1918109.0000      Cuts: 52     6361   38.99%
      0     0  1170603.2063   797  1918109.0000      Cuts: 37     6429   38.97%
      0     0  1170821.9252   807  1918109.0000      Cuts: 37     6482   38.96%
      0     0  1171219.8760   804  1918109.0000      Cuts: 26     6545   38.94%
      0     0  1171388.0581   803  1918109.0000      Cuts: 10     6572   38.93%
*     0+    0                      1914546.0000  1171388.0581            38.82%
*     0+    0                      1883284.0000  1171388.0581            37.80%
*     0+    0                      1882150.0000  1171388.0581            37.76%
      0     0  -1.00000e+75     0  1882150.0000  1171388.0581     6572   37.76%
*     0+    0                      1843968.0000  1171388.0581            36.47%
*     0+    0                      1830631.0000  1171388.0581            36.01%
*     0+    0                      1815204.0000  1171388.0581            35.47%
*     0+    0                      1773575.0000  1171388.0581            33.95%
*     0+    0                      1772703.0000  1171388.0581            33.92%
*     0+    0                      1705571.0000  1171388.0581            31.32%
*     0+    0                      1694422.0000  1171388.0581            30.87%
*     0+    0                      1691525.0000  1171388.0581            30.75%
Advanced basis not built.
      0     0  -1.00000e+75     0  1691525.0000  1171388.0581     6572   30.75%
      0     0        cutoff        1691525.0000  1171388.0581     6572   30.75%
Elapsed time = 5.01 sec. (8886.50 ticks, tree = 0.01 MB, solutions = 16)

GUB cover cuts applied:  0
Clique cuts applied:  0
Cover cuts applied:  15
Implied bound cuts applied:  24
Flow cuts applied:  941
Mixed integer rounding cuts applied:  508
Multi commodity flow cuts applied:  57
Lift and project cuts applied:  1
Disjunctive cuts applied:  0
Cone linearizations applied:  0

Root node processing (before b&c):
  Real time             =    5.01 sec. (8886.98 ticks)
Parallel b&c, 8 threads:
  Real time             =    0.00 sec. (0.00 ticks)
  Sync time (average)   =    0.00 sec.
  Wait time (average)   =    0.00 sec.
                          ------------
Total (root+branch&cut) =    5.01 sec. (8886.98 ticks)
Gap: 30.75%
Upper bound: 1.69153e+06
Lower bound: 1.17139e+06
Termination status: Normal
End of CPLEX run. Time: 5.01409 seconds

===== New CPLEX run =====
Instance: /home/yorig/tuner/mpils-tests/instances/miplib/easy/lotsize.mps
Config: /scratch/yorig/mpils-results-grid-seconds-5-watchdog/easy/24proc/seed-5/4_lotsize_seed-5_20260504_011421/iterated_local_search/run_2_worker_19/ils_config_11638635195388000020.prm
========================

Selected objective sense:  MINIMIZE
Selected objective  name:  R1921
Selected RHS        name:  B
Selected bound      name:  BOUND
Wall watchdog: enabled factor=1 grace=1 limit=6 seconds
Version identifier: 22.1.2.0 | 2024-11-26 | 0edbb82fd
CPXPARAM_Threads                                 8
CPXPARAM_Parallel                                1
CPXPARAM_MIP_Cuts_Cliques                        3
CPXPARAM_MIP_Cuts_Covers                         2
CPXPARAM_MIP_Cuts_FlowCovers                     2
CPXPARAM_MIP_Cuts_Implied                        2
CPXPARAM_MIP_Cuts_GUBCovers                      1
CPXPARAM_MIP_Limits_GomoryCand                   150
CPXPARAM_MIP_Cuts_Gomory                         -1
CPXPARAM_MIP_Cuts_PathCut                        -1
CPXPARAM_MIP_Cuts_Disjunctive                    2
CPXPARAM_Emphasis_MIP                            5
CPXPARAM_TimeLimit                               5
Tried aggregator 1 time.
MIP Presolve eliminated 595 rows and 0 columns.
MIP Presolve added 1190 rows and 0 columns.
MIP Presolve modified 10 coefficients.
Reduced MIP has 2515 rows, 2985 columns, and 7755 nonzeros.
Reduced MIP has 1195 binaries, 0 generals, 0 SOSs, and 0 indicators.
Presolve time = 0.00 sec. (4.53 ticks)
Probing fixed 0 vars, tightened 5487 bounds.
Probing time = 0.01 sec. (18.38 ticks)
Tried aggregator 2 times.
Detecting symmetries...
MIP Presolve modified 1206 coefficients.
Aggregator did 10 substitutions.
Reduced MIP has 2505 rows, 2975 columns, and 7735 nonzeros.
Reduced MIP has 1195 binaries, 0 generals, 0 SOSs, and 0 indicators.
Presolve time = 0.01 sec. (6.66 ticks)
Probing fixed 0 vars, tightened 2401 bounds.
Probing time = 0.00 sec. (6.41 ticks)
Clique table members: 190.
MIP emphasis: heuristic.
MIP search method: dynamic search.
Parallel mode: deterministic, using up to 8 threads.
Root relaxation solution time = 0.01 sec. (9.71 ticks)

        Nodes                                         Cuts/
   Node  Left     Objective  IInf  Best Integer    Best Bound    ItCnt     Gap

      0     0   348385.3466   472                 348385.3466      882         
*     0+    0                       1.40386e+07   348385.3466            97.52%
*     0+    0                       1.01740e+07   348385.3466            96.58%
*     0+    0                      7973370.0000   348385.3466            95.63%
      0     0   583577.4049   435  7973370.0000     Cuts: 726     1819   86.74%
*     0+    0                      1940615.0000  1057629.6430            45.50%
      0     0   876077.9329   621  1940615.0000     Cuts: 726     2593   44.06%
      0     0  1063750.7499   654  1940615.0000     Cuts: 726     3331   42.89%
      0     0  1111757.7903   663  1940615.0000     Cuts: 526     3800   41.86%
      0     0  1129075.8798   652  1940615.0000     Cuts: 336     4138   41.35%
Detecting symmetries...
      0     0  1140477.3095   699  1940615.0000     Cuts: 272     4434   40.83%
      0     0  1147453.6146   719  1940615.0000     Cuts: 261     4704   40.46%
      0     0  1154738.0625   758  1940615.0000     Cuts: 201     4965   40.25%
      0     0  1159161.5565   779  1940615.0000     Cuts: 220     5221   40.06%
      0     0  1162390.1109   765  1940615.0000     Cuts: 145     5411   40.04%
*     0+    0                      1918109.0000  1163557.4277            39.34%
      0     0  1164761.8763   784  1918109.0000     Cuts: 136     5580   39.28%
      0     0  1165994.1191   793  1918109.0000      Cuts: 98     5717   39.21%
      0     0  1167000.6208   787  1918109.0000     Cuts: 114     5854   39.16%
      0     0  1168098.1529   781  1918109.0000      Cuts: 80     5986   39.10%
      0     0  1168622.6711   792  1918109.0000      Cuts: 60     6094   39.07%
      0     0  1169360.8259   790  1918109.0000      Cuts: 63     6175   39.04%
      0     0  1169893.3433   792  1918109.0000      Cuts: 31     6297   39.01%
      0     0  1170201.0900   785  1918109.0000      Cuts: 52     6361   38.99%
      0     0  1170603.2063   797  1918109.0000      Cuts: 37     6429   38.97%
      0     0  1170821.9252   807  1918109.0000      Cuts: 37     6482   38.96%
      0     0  1171219.8760   804  1918109.0000      Cuts: 26     6545   38.94%
      0     0  1171388.0581   803  1918109.0000      Cuts: 10     6572   38.93%
*     0+    0                      1914546.0000  1171388.0581            38.82%
*     0+    0                      1883284.0000  1171388.0581            37.80%
*     0+    0                      1882150.0000  1171388.0581            37.76%
      0     0  -1.00000e+75     0  1882150.0000  1171388.0581     6572   37.76%
*     0+    0                      1843968.0000  1171388.0581            36.47%
*     0+    0                      1830631.0000  1171388.0581            36.01%
*     0+    0                      1815204.0000  1171388.0581            35.47%
*     0+    0                      1773575.0000  1171388.0581            33.95%
*     0+    0                      1772703.0000  1171388.0581            33.92%
*     0+    0                      1705571.0000  1171388.0581            31.32%
*     0+    0                      1694422.0000  1171388.0581            30.87%
*     0+    0                      1691525.0000  1171388.0581            30.75%
Advanced basis not built.
      0     0  -1.00000e+75     0  1691525.0000  1171388.0581     6572   30.75%
      0     0        cutoff        1691525.0000  1171388.0581     6572   30.75%
Elapsed time = 5.01 sec. (8886.84 ticks, tree = 0.01 MB, solutions = 16)

GUB cover cuts applied:  0
Clique cuts applied:  0
Cover cuts applied:  15
Implied bound cuts applied:  24
Flow cuts applied:  941
Mixed integer rounding cuts applied:  508
Multi commodity flow cuts applied:  57
Lift and project cuts applied:  1
Disjunctive cuts applied:  0
Cone linearizations applied:  0

Root node processing (before b&c):
  Real time             =    5.01 sec. (8887.32 ticks)
Parallel b&c, 8 threads:
  Real time             =    0.00 sec. (0.00 ticks)
  Sync time (average)   =    0.00 sec.
  Wait time (average)   =    0.00 sec.
                          ------------
Total (root+branch&cut) =    5.01 sec. (8887.32 ticks)
Gap: 30.75%
Upper bound: 1.69153e+06
Lower bound: 1.17139e+06
Termination status: Normal
End of CPLEX run. Time: 5.01535 seconds

===== New CPLEX run =====
Instance: /home/yorig/tuner/mpils-tests/instances/miplib/easy/lotsize.mps
Config: /scratch/yorig/mpils-results-grid-seconds-5-watchdog/easy/24proc/seed-5/4_lotsize_seed-5_20260504_011421/iterated_local_search/run_2_worker_19/ils_config_7512160056096737261.prm
========================

Selected objective sense:  MINIMIZE
Selected objective  name:  R1921
Selected RHS        name:  B
Selected bound      name:  BOUND
Wall watchdog: enabled factor=1 grace=1 limit=6 seconds
Version identifier: 22.1.2.0 | 2024-11-26 | 0edbb82fd
CPXPARAM_Threads                                 8
CPXPARAM_Parallel                                1
CPXPARAM_MIP_Cuts_Cliques                        3
CPXPARAM_MIP_Cuts_Covers                         2
CPXPARAM_MIP_Cuts_FlowCovers                     -1
CPXPARAM_MIP_Cuts_Implied                        2
CPXPARAM_MIP_Cuts_GUBCovers                      1
CPXPARAM_MIP_Limits_GomoryCand                   150
CPXPARAM_MIP_Cuts_Gomory                         -1
CPXPARAM_MIP_Cuts_PathCut                        -1
CPXPARAM_MIP_Cuts_Disjunctive                    2
CPXPARAM_Emphasis_MIP                            5
CPXPARAM_TimeLimit                               5
CPXPARAM_MIP_Limits_CutsFactor                   4
Tried aggregator 1 time.
MIP Presolve eliminated 595 rows and 0 columns.
MIP Presolve added 1190 rows and 0 columns.
MIP Presolve modified 10 coefficients.
Reduced MIP has 2515 rows, 2985 columns, and 7755 nonzeros.
Reduced MIP has 1195 binaries, 0 generals, 0 SOSs, and 0 indicators.
Presolve time = 0.00 sec. (4.53 ticks)
Probing fixed 0 vars, tightened 5487 bounds.
Probing time = 0.01 sec. (18.38 ticks)
Tried aggregator 2 times.
Detecting symmetries...
MIP Presolve modified 1206 coefficients.
Aggregator did 10 substitutions.
Reduced MIP has 2505 rows, 2975 columns, and 7735 nonzeros.
Reduced MIP has 1195 binaries, 0 generals, 0 SOSs, and 0 indicators.
Presolve time = 0.00 sec. (6.66 ticks)
Probing fixed 0 vars, tightened 2401 bounds.
Probing time = 0.00 sec. (6.41 ticks)
Clique table members: 190.
MIP emphasis: heuristic.
MIP search method: dynamic search.
Parallel mode: deterministic, using up to 8 threads.
Root relaxation solution time = 0.01 sec. (9.71 ticks)

        Nodes                                         Cuts/
   Node  Left     Objective  IInf  Best Integer    Best Bound    ItCnt     Gap

      0     0   348385.3466   472                 348385.3466      882         
*     0+    0                       1.40386e+07   348385.3466            97.52%
*     0+    0                       1.01740e+07   348385.3466            96.58%
*     0+    0                      7973370.0000   348385.3466            95.63%
      0     0   418067.6615   556  7973370.0000     Cuts: 726     1547   88.10%
*     0+    0                      1940615.0000   948567.2579            51.12%
      0     0   666258.5173   526  1940615.0000     Cuts: 726     2212   45.35%
      0     0   899713.8587   591  1940615.0000     Cuts: 726     2954   42.67%
      0     0  1084975.4711   649  1940615.0000     Cuts: 726     3715   39.77%
      0     0  1188932.7842   691  1940615.0000     Cuts: 726     4425   36.73%
Detecting symmetries...
      0     0  1245807.1151   725  1940615.0000     Cuts: 726     5060   34.81%
      0     0  1281647.1316   750  1940615.0000     Cuts: 664     5598   33.59%
      0     0  1298598.0431   759  1940615.0000     Cuts: 455     6020   32.91%
*     0+    0                      1929227.0000  1302034.1500            32.51%
      0     0  1309935.0046   757  1929227.0000     Cuts: 350     6415   32.10%
      0     0  1314972.9487   763  1929227.0000     Cuts: 329     6705   31.84%
*     0+    0                      1915874.0000  1314972.9487            31.36%
      0     0  1318560.1005   787  1915874.0000     Cuts: 224     6947   31.18%
      0     0  1320715.4192   792  1915874.0000     Cuts: 199     7139   31.06%
      0     0  1322875.1746   739  1915874.0000     Cuts: 161     7314   30.95%
      0     0  1323857.3277   761  1915874.0000      Cuts: 82     7430   30.90%
      0     0  1324220.8621   760  1915874.0000     Cuts: 118     7515   30.88%
      0     0  1324402.2309   753  1915874.0000      Cuts: 64     7562   30.87%
*     0+    0                      1762142.0000  1324402.2309            24.84%
      0     0  1324627.8809   754  1762142.0000      Cuts: 44     7603   24.83%
      0     0  1324815.9009   754  1762142.0000      Cuts: 39     7662   24.82%
Advanced basis not built.

GUB cover cuts applied:  0
Clique cuts applied:  1
Cover cuts applied:  15
Implied bound cuts applied:  31
Mixed integer rounding cuts applied:  1482
Multi commodity flow cuts applied:  35
Disjunctive cuts applied:  0
Cone linearizations applied:  0

Root node processing (before b&c):
  Real time             =    5.01 sec. (8155.02 ticks)
Parallel b&c, 8 threads:
  Real time             =    0.00 sec. (0.00 ticks)
  Sync time (average)   =    0.00 sec.
  Wait time (average)   =    0.00 sec.
                          ------------
Total (root+branch&cut) =    5.01 sec. (8155.02 ticks)
Gap: 24.82%
Upper bound: 1.76214e+06
Lower bound: 1.32482e+06
Termination status: Normal
End of CPLEX run. Time: 5.01287 seconds

===== New CPLEX run =====
Instance: /home/yorig/tuner/mpils-tests/instances/miplib/easy/lotsize.mps
Config: /scratch/yorig/mpils-results-grid-seconds-5-watchdog/easy/24proc/seed-5/4_lotsize_seed-5_20260504_011421/iterated_local_search/run_2_worker_19/ils_config_3068087985720441997.prm
========================

Selected objective sense:  MINIMIZE
Selected objective  name:  R1921
Selected RHS        name:  B
Selected bound      name:  BOUND
Wall watchdog: enabled factor=1 grace=1 limit=6 seconds
Version identifier: 22.1.2.0 | 2024-11-26 | 0edbb82fd
CPXPARAM_Threads                                 8
CPXPARAM_Parallel                                1
CPXPARAM_MIP_Cuts_Cliques                        3
CPXPARAM_MIP_Cuts_Covers                         2
CPXPARAM_MIP_Cuts_FlowCovers                     -1
CPXPARAM_MIP_Cuts_GUBCovers                      1
CPXPARAM_MIP_Limits_GomoryCand                   150
CPXPARAM_MIP_Cuts_Gomory                         -1
CPXPARAM_MIP_Cuts_PathCut                        -1
CPXPARAM_MIP_Cuts_Disjunctive                    2
CPXPARAM_Emphasis_MIP                            5
CPXPARAM_TimeLimit                               5
CPXPARAM_MIP_Limits_CutsFactor                   4
Tried aggregator 1 time.
MIP Presolve eliminated 595 rows and 0 columns.
MIP Presolve added 1190 rows and 0 columns.
MIP Presolve modified 10 coefficients.
Reduced MIP has 2515 rows, 2985 columns, and 7755 nonzeros.
Reduced MIP has 1195 binaries, 0 generals, 0 SOSs, and 0 indicators.
Presolve time = 0.00 sec. (4.53 ticks)
Probing fixed 0 vars, tightened 5487 bounds.
Probing time = 0.01 sec. (18.38 ticks)
Tried aggregator 2 times.
Detecting symmetries...
MIP Presolve modified 1206 coefficients.
Aggregator did 10 substitutions.
Reduced MIP has 2505 rows, 2975 columns, and 7735 nonzeros.
Reduced MIP has 1195 binaries, 0 generals, 0 SOSs, and 0 indicators.
Presolve time = 0.01 sec. (6.66 ticks)
Probing fixed 0 vars, tightened 2401 bounds.
Probing time = 0.00 sec. (6.41 ticks)
Clique table members: 190.
MIP emphasis: heuristic.
MIP search method: dynamic search.
Parallel mode: deterministic, using up to 8 threads.
Root relaxation solution time = 0.01 sec. (9.71 ticks)

        Nodes                                         Cuts/
   Node  Left     Objective  IInf  Best Integer    Best Bound    ItCnt     Gap

      0     0   348385.3466   472                 348385.3466      882         
*     0+    0                       1.40386e+07   348385.3466            97.52%
*     0+    0                       1.01740e+07   348385.3466            96.58%
*     0+    0                      7973370.0000   348385.3466            95.63%
      0     0   418067.6615   556  7973370.0000     Cuts: 726     1547   88.10%
*     0+    0                      1940615.0000   948567.2579            51.12%
      0     0   666258.5173   526  1940615.0000     Cuts: 726     2212   45.35%
      0     0   899713.8587   591  1940615.0000     Cuts: 726     2954   42.67%
      0     0  1084975.4711   649  1940615.0000     Cuts: 726     3715   39.77%
      0     0  1188932.7842   691  1940615.0000     Cuts: 726     4425   36.73%
Detecting symmetries...
      0     0  1245807.1151   725  1940615.0000     Cuts: 726     5060   34.81%
      0     0  1281647.1316   750  1940615.0000     Cuts: 664     5598   33.59%
      0     0  1298598.0431   759  1940615.0000     Cuts: 455     6020   32.91%
*     0+    0                      1929227.0000  1302034.1500            32.51%
      0     0  1309935.0046   757  1929227.0000     Cuts: 350     6415   32.10%
      0     0  1314972.9487   763  1929227.0000     Cuts: 329     6705   31.84%
*     0+    0                      1915874.0000  1314972.9487            31.36%
      0     0  1318560.1005   787  1915874.0000     Cuts: 224     6947   31.18%
      0     0  1320715.4192   792  1915874.0000     Cuts: 199     7139   31.06%
      0     0  1322875.1746   739  1915874.0000     Cuts: 161     7314   30.95%
      0     0  1323857.3277   761  1915874.0000      Cuts: 82     7430   30.90%
      0     0  1324220.8621   760  1915874.0000     Cuts: 118     7515   30.88%
      0     0  1324402.2309   753  1915874.0000      Cuts: 64     7562   30.87%
*     0+    0                      1762142.0000  1324402.2309            24.84%
      0     0  1324627.8809   754  1762142.0000      Cuts: 44     7603   24.83%
      0     0  1324815.9009   754  1762142.0000      Cuts: 39     7662   24.82%
Advanced basis not built.

GUB cover cuts applied:  0
Clique cuts applied:  1
Cover cuts applied:  15
Implied bound cuts applied:  31
Mixed integer rounding cuts applied:  1482
Multi commodity flow cuts applied:  35
Disjunctive cuts applied:  0
Cone linearizations applied:  0

Root node processing (before b&c):
  Real time             =    5.01 sec. (8172.35 ticks)
Parallel b&c, 8 threads:
  Real time             =    0.00 sec. (0.00 ticks)
  Sync time (average)   =    0.00 sec.
  Wait time (average)   =    0.00 sec.
                          ------------
Total (root+branch&cut) =    5.01 sec. (8172.35 ticks)
Gap: 24.82%
Upper bound: 1.76214e+06
Lower bound: 1.32482e+06
Termination status: Normal
End of CPLEX run. Time: 5.01433 seconds
